words_hard_train/6141.qaiger
aag 198 24 0 1 174
2
4
12
14
18
20
32
34
46
48
60
62
74
76
88
90
108
134
142
158
174
190
206
222
396
6 2 5
8 3 4
10 7 9
16 12 14
22 19 21
24 18 20
26 23 25
28 16 26
30 29 25
36 33 35
38 32 34
40 37 39
42 31 40
44 43 39
50 47 49
52 46 48
54 51 53
56 45 54
58 57 53
64 61 63
66 60 62
68 65 67
70 59 68
72 71 67
78 75 77
80 74 76
82 79 81
84 73 82
86 85 81
92 89 91
94 88 90
96 93 95
98 87 96
100 99 95
102 11 101
104 10 100
106 103 105
110 108 2
112 109 3
114 111 113
116 12 18
118 116 32
120 118 46
122 120 60
124 122 74
126 124 88
128 115 126
130 114 127
132 129 131
136 134 13
138 13 19
140 139 117
144 141 143
146 140 142
148 145 147
150 136 148
152 151 147
154 117 33
156 155 119
160 157 159
162 156 158
164 161 163
166 153 164
168 167 163
170 119 47
172 171 121
176 173 175
178 172 174
180 177 179
182 169 180
184 183 179
186 121 61
188 187 123
192 189 191
194 188 190
196 193 195
198 185 196
200 199 195
202 123 75
204 203 125
208 205 207
210 204 206
212 209 211
214 201 212
216 215 211
218 125 89
220 219 127
224 221 223
226 220 222
228 225 227
230 217 228
232 231 227
234 133 233
236 132 232
238 235 237
240 106 239
242 135 12
244 243 137
246 13 15
248 247 17
250 245 248
252 17 27
254 253 29
256 251 255
258 137 149
260 259 151
262 257 261
264 250 254
266 263 265
268 249 255
270 266 269
272 152 165
274 273 167
276 30 41
278 277 43
280 269 278
282 268 279
284 281 283
286 274 284
288 271 287
290 275 285
292 289 291
294 168 181
296 295 183
298 44 55
300 299 57
302 283 300
304 282 301
306 303 305
308 296 306
310 293 309
312 297 307
314 311 313
316 184 197
318 317 199
320 58 69
322 321 71
324 305 322
326 304 323
328 325 327
330 318 328
332 315 331
334 319 329
336 333 335
338 200 213
340 339 215
342 72 83
344 343 85
346 327 344
348 326 345
350 347 349
352 340 350
354 337 353
356 341 351
358 355 357
360 216 229
362 361 231
364 86 97
366 365 99
368 349 366
370 348 367
372 369 371
374 362 372
376 359 375
378 363 373
380 377 379
382 380 370
384 240 383
386 381 371
388 387 241
390 385 389
392 107 238
394 392 383
396 391 395
i0 2 y1[7]
i1 1 x2[7]
i2 2 y1[0]
i3 1 x2[0]
i4 2 y1[1]
i5 1 x2[1]
i6 2 y1[2]
i7 1 x2[2]
i8 2 y1[3]
i9 1 x2[3]
i10 2 y1[4]
i11 1 x2[4]
i12 2 y1[5]
i13 1 x2[5]
i14 2 y1[6]
i15 1 x2[6]
i16 1 x1[7]
i17 1 x1[0]
i18 1 x1[1]
i19 1 x1[2]
i20 1 x1[3]
i21 1 x1[4]
i22 1 x1[5]
i23 1 x1[6]
o0 bv[0]
c
simplified
  <=
    add
      2 y1
      1 x2
    subtract
      1 x1
      invert
        2 y1
