words_hard_train/6141.qaiger.qdimacs
p cnf 198 523
a 2 67 38 7 71 103 10 45 79 111 17 54 87 24 95 31 0
e 1 3 4 5 6 8 9 11 12 13 14 15 16 18 19 20 21 22 23 25 26 27 28 29 30 32 33 34 35 36 37 39 40 41 42 43 44 46 47 48 49 50 51 52 53 55 56 57 58 59 60 61 62 63 64 65 66 68 69 70 72 73 74 75 76 77 78 80 81 82 83 84 85 86 88 89 90 91 92 93 94 96 97 98 99 100 101 102 104 105 106 107 108 109 110 112 113 114 115 116 117 118 119 120 121 122 123 124 125 126 127 128 129 130 131 132 133 134 135 136 137 138 139 140 141 142 143 144 145 146 147 148 149 150 151 152 153 154 155 156 157 158 159 160 161 162 163 164 165 166 167 168 169 170 171 172 173 174 175 176 177 178 179 180 181 182 183 184 185 186 187 188 189 190 191 192 193 194 195 196 197 198 0
-1 2 3 0
1 -3 0
-2 -3 0
1 -2 4 0
-1 -4 0
2 -4 0
3 4 5 0
-3 -5 0
-4 -5 0
-6 -7 8 0
6 -8 0
7 -8 0
9 10 11 0
-9 -11 0
-10 -11 0
-9 -10 12 0
9 -12 0
10 -12 0
11 12 13 0
-11 -13 0
-12 -13 0
-8 -13 14 0
8 -14 0
13 -14 0
14 12 15 0
-14 -15 0
-12 -15 0
16 17 18 0
-16 -18 0
-17 -18 0
-16 -17 19 0
16 -19 0
17 -19 0
18 19 20 0
-18 -20 0
-19 -20 0
15 -20 21 0
-15 -21 0
20 -21 0
21 19 22 0
-21 -22 0
-19 -22 0
23 24 25 0
-23 -25 0
-24 -25 0
-23 -24 26 0
23 -26 0
24 -26 0
25 26 27 0
-25 -27 0
-26 -27 0
22 -27 28 0
-22 -28 0
27 -28 0
28 26 29 0
-28 -29 0
-26 -29 0
30 31 32 0
-30 -32 0
-31 -32 0
-30 -31 33 0
30 -33 0
31 -33 0
32 33 34 0
-32 -34 0
-33 -34 0
29 -34 35 0
-29 -35 0
34 -35 0
35 33 36 0
-35 -36 0
-33 -36 0
37 38 39 0
-37 -39 0
-38 -39 0
-37 -38 40 0
37 -40 0
38 -40 0
39 40 41 0
-39 -41 0
-40 -41 0
36 -41 42 0
-36 -42 0
41 -42 0
42 40 43 0
-42 -43 0
-40 -43 0
44 45 46 0
-44 -46 0
-45 -46 0
-44 -45 47 0
44 -47 0
45 -47 0
46 47 48 0
-46 -48 0
-47 -48 0
43 -48 49 0
-43 -49 0
48 -49 0
49 47 50 0
-49 -50 0
-47 -50 0
5 50 51 0
-5 -51 0
-50 -51 0
-5 -50 52 0
5 -52 0
50 -52 0
51 52 53 0
-51 -53 0
-52 -53 0
-54 -1 55 0
54 -55 0
1 -55 0
54 1 56 0
-54 -56 0
-1 -56 0
55 56 57 0
-55 -57 0
-56 -57 0
-6 -9 58 0
6 -58 0
9 -58 0
-58 -16 59 0
58 -59 0
16 -59 0
-59 -23 60 0
59 -60 0
23 -60 0
-60 -30 61 0
60 -61 0
30 -61 0
-61 -37 62 0
61 -62 0
37 -62 0
-62 -44 63 0
62 -63 0
44 -63 0
57 -63 64 0
-57 -64 0
63 -64 0
-57 63 65 0
57 -65 0
-63 -65 0
64 65 66 0
-64 -66 0
-65 -66 0
-67 6 68 0
67 -68 0
-6 -68 0
6 9 69 0
-6 -69 0
-9 -69 0
69 58 70 0
-69 -70 0
-58 -70 0
70 71 72 0
-70 -72 0
-71 -72 0
-70 -71 73 0
70 -73 0
71 -73 0
72 73 74 0
-72 -74 0
-73 -74 0
-68 -74 75 0
68 -75 0
74 -75 0
75 73 76 0
-75 -76 0
-73 -76 0
58 16 77 0
-58 -77 0
-16 -77 0
77 59 78 0
-77 -78 0
-59 -78 0
78 79 80 0
-78 -80 0
-79 -80 0
-78 -79 81 0
78 -81 0
79 -81 0
80 81 82 0
-80 -82 0
-81 -82 0
76 -82 83 0
-76 -83 0
82 -83 0
83 81 84 0
-83 -84 0
-81 -84 0
59 23 85 0
-59 -85 0
-23 -85 0
85 60 86 0
-85 -86 0
-60 -86 0
86 87 88 0
-86 -88 0
-87 -88 0
-86 -87 89 0
86 -89 0
87 -89 0
88 89 90 0
-88 -90 0
-89 -90 0
84 -90 91 0
-84 -91 0
90 -91 0
91 89 92 0
-91 -92 0
-89 -92 0
60 30 93 0
-60 -93 0
-30 -93 0
93 61 94 0
-93 -94 0
-61 -94 0
94 95 96 0
-94 -96 0
-95 -96 0
-94 -95 97 0
94 -97 0
95 -97 0
96 97 98 0
-96 -98 0
-97 -98 0
92 -98 99 0
-92 -99 0
98 -99 0
99 97 100 0
-99 -100 0
-97 -100 0
61 37 101 0
-61 -101 0
-37 -101 0
101 62 102 0
-101 -102 0
-62 -102 0
102 103 104 0
-102 -104 0
-103 -104 0
-102 -103 105 0
102 -105 0
103 -105 0
104 105 106 0
-104 -106 0
-105 -106 0
100 -106 107 0
-100 -107 0
106 -107 0
107 105 108 0
-107 -108 0
-105 -108 0
62 44 109 0
-62 -109 0
-44 -109 0
109 63 110 0
-109 -110 0
-63 -110 0
110 111 112 0
-110 -112 0
-111 -112 0
-110 -111 113 0
110 -113 0
111 -113 0
112 113 114 0
-112 -114 0
-113 -114 0
108 -114 115 0
-108 -115 0
114 -115 0
115 113 116 0
-115 -116 0
-113 -116 0
66 116 117 0
-66 -117 0
-116 -117 0
-66 -116 118 0
66 -118 0
116 -118 0
117 118 119 0
-117 -119 0
-118 -119 0
-53 119 120 0
53 -120 0
-119 -120 0
67 -6 121 0
-67 -121 0
6 -121 0
121 68 122 0
-121 -122 0
-68 -122 0
6 7 123 0
-6 -123 0
-7 -123 0
123 8 124 0
-123 -124 0
-8 -124 0
122 -124 125 0
-122 -125 0
124 -125 0
8 13 126 0
-8 -126 0
-13 -126 0
126 14 127 0
-126 -127 0
-14 -127 0
125 127 128 0
-125 -128 0
-127 -128 0
68 74 129 0
-68 -129 0
-74 -129 0
129 75 130 0
-129 -130 0
-75 -130 0
128 130 131 0
-128 -131 0
-130 -131 0
-125 -127 132 0
125 -132 0
127 -132 0
131 132 133 0
-131 -133 0
-132 -133 0
124 127 134 0
-124 -134 0
-127 -134 0
-133 134 135 0
133 -135 0
-134 -135 0
-76 82 136 0
76 -136 0
-82 -136 0
136 83 137 0
-136 -137 0
-83 -137 0
-15 20 138 0
15 -138 0
-20 -138 0
138 21 139 0
-138 -139 0
-21 -139 0
134 -139 140 0
-134 -140 0
139 -140 0
-134 139 141 0
134 -141 0
-139 -141 0
140 141 142 0
-140 -142 0
-141 -142 0
-137 -142 143 0
137 -143 0
142 -143 0
135 143 144 0
-135 -144 0
-143 -144 0
137 142 145 0
-137 -145 0
-142 -145 0
144 145 146 0
-144 -146 0
-145 -146 0
-84 90 147 0
84 -147 0
-90 -147 0
147 91 148 0
-147 -148 0
-91 -148 0
-22 27 149 0
22 -149 0
-27 -149 0
149 28 150 0
-149 -150 0
-28 -150 0
141 -150 151 0
-141 -151 0
150 -151 0
-141 150 152 0
141 -152 0
-150 -152 0
151 152 153 0
-151 -153 0
-152 -153 0
-148 -153 154 0
148 -154 0
153 -154 0
146 154 155 0
-146 -155 0
-154 -155 0
148 153 156 0
-148 -156 0
-153 -156 0
155 156 157 0
-155 -157 0
-156 -157 0
-92 98 158 0
92 -158 0
-98 -158 0
158 99 159 0
-158 -159 0
-99 -159 0
-29 34 160 0
29 -160 0
-34 -160 0
160 35 161 0
-160 -161 0
-35 -161 0
152 -161 162 0
-152 -162 0
161 -162 0
-152 161 163 0
152 -163 0
-161 -163 0
162 163 164 0
-162 -164 0
-163 -164 0
-159 -164 165 0
159 -165 0
164 -165 0
157 165 166 0
-157 -166 0
-165 -166 0
159 164 167 0
-159 -167 0
-164 -167 0
166 167 168 0
-166 -168 0
-167 -168 0
-100 106 169 0
100 -169 0
-106 -169 0
169 107 170 0
-169 -170 0
-107 -170 0
-36 41 171 0
36 -171 0
-41 -171 0
171 42 172 0
-171 -172 0
-42 -172 0
163 -172 173 0
-163 -173 0
172 -173 0
-163 172 174 0
163 -174 0
-172 -174 0
173 174 175 0
-173 -175 0
-174 -175 0
-170 -175 176 0
170 -176 0
175 -176 0
168 176 177 0
-168 -177 0
-176 -177 0
170 175 178 0
-170 -178 0
-175 -178 0
177 178 179 0
-177 -179 0
-178 -179 0
-108 114 180 0
108 -180 0
-114 -180 0
180 115 181 0
-180 -181 0
-115 -181 0
-43 48 182 0
43 -182 0
-48 -182 0
182 49 183 0
-182 -183 0
-49 -183 0
174 -183 184 0
-174 -184 0
183 -184 0
-174 183 185 0
174 -185 0
-183 -185 0
184 185 186 0
-184 -186 0
-185 -186 0
-181 -186 187 0
181 -187 0
186 -187 0
179 187 188 0
-179 -188 0
-187 -188 0
181 186 189 0
-181 -189 0
-186 -189 0
188 189 190 0
-188 -190 0
-189 -190 0
-190 -185 191 0
190 -191 0
185 -191 0
-120 191 192 0
120 -192 0
-191 -192 0
190 185 193 0
-190 -193 0
-185 -193 0
193 120 194 0
-193 -194 0
-120 -194 0
192 194 195 0
-192 -195 0
-194 -195 0
53 -119 196 0
-53 -196 0
119 -196 0
-196 191 197 0
196 -197 0
-191 -197 0
195 197 198 0
-195 -198 0
-197 -198 0
198 0
